39 92 
66 60 
40 96 
60 55 
56 32 
16 65 
27 76 
22 0 
20 4 
90 96 
22 41 
81 51 
87 92 
54 95 
59 20 
64 51 
12 82 
11 5 
79 23 
12 35 
55 29 
1 35 
57 75 
35 77 
31 77 
73 53 
71 6 
5 10 
98 59 
6 10 
80 22 
61 44 
57 24 
49 36 
47 14 
23 55 
43 24 
42 0 
51 77 
30 83 
7 3 
36 78 
62 93 
88 60 
5 46 
22 37 
21 83 
33 78 
59 35 
66 59 
